760
259
4635
15969
23405
30512
5332
3134
19295
24578
19733
22433
9603
16268
11708
16204
10157
29399
7663
26876
313
28229
5039
27067
9321
6136
19714
27295
2518
30089
31287
15754
13045
13255
21549
27706
27160
26244
27816
2766
27695
4081
9836
3583
26473
21276
24607
13377
14767
16674
10481
26550
3628
28818
10320
10682
1869
27583
32347
12030
24890
21207
12105
1973
11601
13302
28353
30510
11117
15689
10829
10980
986
3695
17721
13898
28353
23467
17118
754
1505
11473
3181
32288
27606
28477
19339
14683
7612
23882
16002
31879
11520
6434
13242
31942
22980
25504
10912
29371
